language Essence 1.3
letting nnodes be 30
letting nrings be 15
letting capacity be 11
letting demand be 
{{1, 2},
{1, 4},
{1, 5},
{1, 7},
{1, 10},
{1, 11},
{1, 13},
{1, 14},
{1, 16},
{1, 17},
{1, 18},
{1, 20},
{1, 21},
{1, 22},
{1, 24},
{1, 25},
{1, 26},
{1, 29},
{1, 30},
{2, 3},
{2, 5},
{2, 7},
{2, 11},
{2, 18},
{2, 20},
{2, 21},
{2, 22},
{2, 23},
{2, 26},
{2, 29},
{2, 30},
{3, 5},
{3, 6},
{3, 7},
{3, 8},
{3, 11},
{3, 12},
{3, 15},
{3, 16},
{3, 17},
{3, 19},
{3, 21},
{3, 25},
{3, 26},
{3, 27},
{3, 28},
{4, 6},
{4, 8},
{4, 10},
{4, 12},
{4, 14},
{4, 15},
{4, 16},
{4, 18},
{4, 24},
{4, 25},
{4, 28},
{4, 29},
{4, 30},
{5, 7},
{5, 9},
{5, 10},
{5, 13},
{5, 17},
{5, 19},
{5, 22},
{5, 24},
{5, 26},
{5, 27},
{5, 28},
{6, 8},
{6, 9},
{6, 13},
{6, 14},
{6, 16},
{6, 17},
{6, 19},
{6, 21},
{6, 22},
{6, 25},
{6, 28},
{6, 29},
{6, 30},
{7, 8},
{7, 9},
{7, 13},
{7, 16},
{7, 18},
{7, 19},
{7, 20},
{7, 22},
{7, 24},
{7, 25},
{7, 29},
{7, 30},
{8, 9},
{8, 10},
{8, 11},
{8, 12},
{8, 13},
{8, 15},
{8, 16},
{8, 17},
{8, 18},
{8, 19},
{8, 22},
{8, 23},
{8, 28},
{8, 29},
{8, 30},
{9, 11},
{9, 12},
{9, 13},
{9, 14},
{9, 15},
{9, 16},
{9, 19},
{9, 21},
{9, 22},
{9, 23},
{9, 25},
{9, 27},
{9, 28},
{10, 12},
{10, 13},
{10, 16},
{10, 17},
{10, 23},
{10, 24},
{10, 26},
{10, 28},
{10, 30},
{11, 13},
{11, 14},
{11, 20},
{11, 23},
{11, 24},
{11, 27},
{11, 28},
{12, 13},
{12, 14},
{12, 15},
{12, 16},
{12, 19},
{12, 20},
{12, 22},
{12, 23},
{12, 24},
{12, 25},
{12, 26},
{12, 30},
{13, 14},
{13, 15},
{13, 17},
{13, 18},
{13, 20},
{13, 21},
{13, 23},
{13, 24},
{13, 28},
{13, 30},
{14, 15},
{14, 21},
{14, 22},
{14, 23},
{14, 27},
{14, 28},
{14, 30},
{15, 20},
{15, 21},
{15, 24},
{15, 25},
{15, 27},
{15, 28},
{15, 29},
{16, 17},
{16, 18},
{16, 21},
{16, 26},
{16, 28},
{16, 29},
{17, 18},
{17, 19},
{17, 20},
{17, 21},
{17, 22},
{17, 23},
{17, 25},
{17, 28},
{18, 19},
{18, 21},
{18, 26},
{18, 28},
{19, 20},
{19, 21},
{19, 22},
{19, 24},
{19, 25},
{19, 27},
{19, 29},
{19, 30},
{20, 21},
{20, 22},
{20, 24},
{20, 27},
{21, 23},
{21, 24},
{21, 25},
{21, 26},
{21, 27},
{21, 29},
{22, 23},
{22, 24},
{22, 25},
{22, 26},
{22, 27},
{22, 29},
{23, 25},
{23, 26},
{23, 27},
{23, 28},
{24, 25},
{24, 26},
{24, 27},
{25, 26},
{25, 27},
{26, 27},
{26, 28},
{27, 29},
{28, 29}}
